<number of tasks>
50

<cycle time>
1000

<order strength>
0.896


<task times>
1 366
2 292
3 30
4 80
5 96
6 208
7 184
8 231
9 401
10 319
11 172
12 231
13 355
14 70
15 288
16 91
17 179
18 302
19 84
20 498
21 113
22 89
23 39
24 356
25 30
26 485
27 299
28 391
29 184
30 167
31 155
32 620
33 163
34 175
35 456
36 133
37 549
38 84
39 442
40 195
41 133
42 141
43 584
44 209
45 424
46 427
47 163
48 268
49 27
50 355

<precedence relations>
1,3
1,4
1,5
2,3
2,4
2,5
3,6
3,7
4,6
4,7
5,6
5,7
6,8
6,9
7,8
7,9
8,10
9,10
10,11
10,12
10,13
10,14
11,15
11,16
12,15
12,16
13,15
13,16
14,15
14,16
15,17
15,18
15,19
16,17
16,18
16,19
17,20
17,21
18,20
18,21
19,20
19,21
20,22
20,23
20,24
21,22
21,23
21,24
22,25
22,26
22,27
23,25
23,26
23,27
24,25
24,26
24,27
25,28
25,29
25,30
26,30
26,31
27,28
27,29
27,30
28,32
29,33
29,36
30,32
30,33
31,37
31,41
32,34
32,35
32,36
32,37
33,34
34,41
34,42
35,40
36,39
36,40
36,41
37,38
37,39
37,40
38,42
39,42
39,44
40,43
41,43
42,45
43,46
44,45
44,47
45,48
46,50
47,49

<end>
